(set-logic ALL)
(set-option :produce-models true)
; benchmark generated from rust API
(set-info :status unknown)
(declare-fun x_3_m2 () Int)
(declare-fun x_3_m1 () Int)
(declare-fun sim_3_3 () Bool)
(declare-fun x_2_m2 () Int)
(declare-fun sim_3_2 () Bool)
(declare-fun x_1_m2 () Int)
(declare-fun sim_3_1 () Bool)
(declare-fun x_0_m2 () Int)
(declare-fun sim_3_0 () Bool)
(declare-fun x_2_m1 () Int)
(declare-fun sim_2_3 () Bool)
(declare-fun sim_2_2 () Bool)
(declare-fun sim_2_1 () Bool)
(declare-fun sim_2_0 () Bool)
(declare-fun x_1_m1 () Int)
(declare-fun sim_1_3 () Bool)
(declare-fun sim_1_2 () Bool)
(declare-fun sim_1_1 () Bool)
(declare-fun sim_1_0 () Bool)
(declare-fun x_0_m1 () Int)
(declare-fun sim_0_3 () Bool)
(declare-fun sim_0_2 () Bool)
(declare-fun sim_0_1 () Bool)
(declare-fun sim_0_0 () Bool)
(assert
 (let (($x439 (= x_3_m1 1)))
 (let (($x460 (=> sim_3_3 (or $x439 (or (= x_3_m1 3) (not (= x_3_m1 x_3_m2)))))))
 (let (($x455 (=> sim_3_2 (or $x439 (or (= x_3_m1 3) (not (= x_3_m1 x_2_m2)))))))
 (let (($x450 (=> sim_3_1 (or $x439 (or (= x_3_m1 3) (not (= x_3_m1 x_1_m2)))))))
 (let (($x445 (=> sim_3_0 (or $x439 (or (= x_3_m1 3) (not (= x_3_m1 x_0_m2)))))))
 (let (($x312 (= x_2_m1 1)))
 (let (($x438 (=> sim_2_3 (or $x312 (or (= x_2_m1 3) (not (= x_2_m1 x_3_m2)))))))
 (let (($x433 (=> sim_2_2 (or $x312 (or (= x_2_m1 3) (not (= x_2_m1 x_2_m2)))))))
 (let (($x428 (=> sim_2_1 (or $x312 (or (= x_2_m1 3) (not (= x_2_m1 x_1_m2)))))))
 (let (($x423 (=> sim_2_0 (or $x312 (or (= x_2_m1 3) (not (= x_2_m1 x_0_m2)))))))
 (let (($x251 (= x_1_m1 1)))
 (let (($x418 (=> sim_1_3 (or $x251 (or (= x_1_m1 3) (not (= x_1_m1 x_3_m2)))))))
 (let (($x413 (=> sim_1_2 (or $x251 (or (= x_1_m1 3) (not (= x_1_m1 x_2_m2)))))))
 (let (($x408 (=> sim_1_1 (or $x251 (or (= x_1_m1 3) (not (= x_1_m1 x_1_m2)))))))
 (let (($x403 (=> sim_1_0 (or $x251 (or (= x_1_m1 3) (not (= x_1_m1 x_0_m2)))))))
 (let (($x56 (= x_0_m1 1)))
 (let (($x398 (=> sim_0_3 (or $x56 (or (= x_0_m1 3) (not (= x_0_m1 x_3_m2)))))))
 (let (($x393 (=> sim_0_2 (or $x56 (or (= x_0_m1 3) (not (= x_0_m1 x_2_m2)))))))
 (let (($x388 (=> sim_0_1 (or $x56 (or (= x_0_m1 3) (not (= x_0_m1 x_1_m2)))))))
 (let (($x383 (=> sim_0_0 (or $x56 (or (= x_0_m1 3) (not (= x_0_m1 x_0_m2)))))))
 (let (($x143 (= x_3_m2 3)))
 (let (($x146 (= x_3_m2 2)))
 (let (($x100 (= x_3_m2 1)))
 (let (($x215 (= x_3_m2 0)))
 (let (($x235 (ite $x215 $x100 (ite $x100 $x146 (ite $x146 $x143 (ite $x143 $x143 (= x_3_m2 x_3_m2)))))))
 (let (($x236 (and $x235)))
 (let (($x134 (= x_2_m2 3)))
 (let (($x137 (= x_2_m2 2)))
 (let (($x97 (= x_2_m2 1)))
 (let (($x228 (ite $x215 $x97 (ite $x100 $x137 (ite $x146 $x134 (ite $x143 $x134 (= x_2_m2 x_3_m2)))))))
 (let (($x229 (and $x228)))
 (let (($x125 (= x_1_m2 3)))
 (let (($x128 (= x_1_m2 2)))
 (let (($x94 (= x_1_m2 1)))
 (let (($x222 (ite $x215 $x94 (ite $x100 $x128 (ite $x146 $x125 (ite $x143 $x125 (= x_1_m2 x_3_m2)))))))
 (let (($x223 (and $x222)))
 (let (($x115 (= x_0_m2 3)))
 (let (($x117 (= x_0_m2 2)))
 (let (($x57 (= x_0_m2 1)))
 (let (($x216 (ite $x215 $x57 (ite $x100 $x117 (ite $x146 $x115 (ite $x143 $x115 (= x_0_m2 x_3_m2)))))))
 (let (($x217 (and $x216)))
 (let (($x336 (and (=> $x217 sim_2_0) (=> $x223 sim_2_1) (=> $x229 sim_2_2) (=> $x236 sim_2_3))))
 (let (($x186 (= x_2_m2 0)))
 (let (($x207 (ite $x186 $x100 (ite $x97 $x146 (ite $x137 $x143 (ite $x134 $x143 (= x_3_m2 x_2_m2)))))))
 (let (($x208 (and $x207)))
 (let (($x200 (ite $x186 $x97 (ite $x97 $x137 (ite $x137 $x134 (ite $x134 $x134 (= x_2_m2 x_2_m2)))))))
 (let (($x201 (and $x200)))
 (let (($x193 (ite $x186 $x94 (ite $x97 $x128 (ite $x137 $x125 (ite $x134 $x125 (= x_1_m2 x_2_m2)))))))
 (let (($x194 (and $x193)))
 (let (($x187 (ite $x186 $x57 (ite $x97 $x117 (ite $x137 $x115 (ite $x134 $x115 (= x_0_m2 x_2_m2)))))))
 (let (($x188 (and $x187)))
 (let (($x330 (and (=> $x188 sim_2_0) (=> $x194 sim_2_1) (=> $x201 sim_2_2) (=> $x208 sim_2_3))))
 (let (($x156 (= x_1_m2 0)))
 (let (($x178 (ite $x156 $x100 (ite $x94 $x146 (ite $x128 $x143 (ite $x125 $x143 (= x_3_m2 x_1_m2)))))))
 (let (($x179 (and $x178)))
 (let (($x171 (ite $x156 $x97 (ite $x94 $x137 (ite $x128 $x134 (ite $x125 $x134 (= x_2_m2 x_1_m2)))))))
 (let (($x172 (and $x171)))
 (let (($x164 (ite $x156 $x94 (ite $x94 $x128 (ite $x128 $x125 (ite $x125 $x125 (= x_1_m2 x_1_m2)))))))
 (let (($x165 (and $x164)))
 (let (($x157 (ite $x156 $x57 (ite $x94 $x117 (ite $x128 $x115 (ite $x125 $x115 (= x_0_m2 x_1_m2)))))))
 (let (($x158 (and $x157)))
 (let (($x324 (and (=> $x158 sim_2_0) (=> $x165 sim_2_1) (=> $x172 sim_2_2) (=> $x179 sim_2_3))))
 (let (($x120 (= x_0_m2 0)))
 (let (($x148 (ite $x120 $x100 (ite $x57 $x146 (ite $x117 $x143 (ite $x115 $x143 (= x_3_m2 x_0_m2)))))))
 (let (($x149 (and $x148)))
 (let (($x139 (ite $x120 $x97 (ite $x57 $x137 (ite $x117 $x134 (ite $x115 $x134 (= x_2_m2 x_0_m2)))))))
 (let (($x140 (and $x139)))
 (let (($x130 (ite $x120 $x94 (ite $x57 $x128 (ite $x117 $x125 (ite $x115 $x125 (= x_1_m2 x_0_m2)))))))
 (let (($x131 (and $x130)))
 (let (($x121 (ite $x120 $x57 (ite $x57 $x117 (ite $x117 $x115 (ite $x115 $x115 (= x_0_m2 x_0_m2)))))))
 (let (($x122 (and $x121)))
 (let (($x318 (and (=> $x122 sim_2_0) (=> $x131 sim_2_1) (=> $x140 sim_2_2) (=> $x149 sim_2_3))))
 (let (($x374 (and (=> sim_2_0 $x318) (=> sim_2_1 $x324) (=> sim_2_2 $x330) (=> sim_2_3 $x336))))
 (let (($x306 (= x_2_m1 3)))
 (let (($x309 (= x_2_m1 2)))
 (let (($x310 (or $x309 $x306)))
 (let (($x343 (= x_2_m1 0)))
 (let (($x368 (ite $x343 $x312 (ite $x312 $x310 (ite $x309 $x306 (ite $x306 $x306 (= x_2_m1 x_2_m1)))))))
 (let (($x275 (and (=> $x217 sim_1_0) (=> $x223 sim_1_1) (=> $x229 sim_1_2) (=> $x236 sim_1_3))))
 (let (($x269 (and (=> $x188 sim_1_0) (=> $x194 sim_1_1) (=> $x201 sim_1_2) (=> $x208 sim_1_3))))
 (let (($x263 (and (=> $x158 sim_1_0) (=> $x165 sim_1_1) (=> $x172 sim_1_2) (=> $x179 sim_1_3))))
 (let (($x257 (and (=> $x122 sim_1_0) (=> $x131 sim_1_1) (=> $x140 sim_1_2) (=> $x149 sim_1_3))))
 (let (($x362 (and (=> sim_2_0 $x257) (=> sim_2_1 $x263) (=> sim_2_2 $x269) (=> sim_2_3 $x275))))
 (let (($x245 (= x_1_m1 3)))
 (let (($x248 (= x_1_m1 2)))
 (let (($x249 (or $x248 $x245)))
 (let (($x356 (ite $x343 $x251 (ite $x312 $x249 (ite $x309 $x245 (ite $x306 $x245 (= x_1_m1 x_2_m1)))))))
 (let (($x238 (and (=> $x217 sim_0_0) (=> $x223 sim_0_1) (=> $x229 sim_0_2) (=> $x236 sim_0_3))))
 (let (($x210 (and (=> $x188 sim_0_0) (=> $x194 sim_0_1) (=> $x201 sim_0_2) (=> $x208 sim_0_3))))
 (let (($x181 (and (=> $x158 sim_0_0) (=> $x165 sim_0_1) (=> $x172 sim_0_2) (=> $x179 sim_0_3))))
 (let (($x151 (and (=> $x122 sim_0_0) (=> $x131 sim_0_1) (=> $x140 sim_0_2) (=> $x149 sim_0_3))))
 (let (($x350 (and (=> sim_2_0 $x151) (=> sim_2_1 $x181) (=> sim_2_2 $x210) (=> sim_2_3 $x238))))
 (let (($x104 (= x_0_m1 3)))
 (let (($x107 (= x_0_m1 2)))
 (let (($x109 (or $x107 $x104)))
 (let (($x344 (ite $x343 $x56 (ite $x312 $x109 (ite $x309 $x104 (ite $x306 $x104 (= x_0_m1 x_2_m1)))))))
 (let (($x376 (or (and (and $x344) $x350) (and (and $x356) $x362) (and (and $x368) $x374))))
 (let (($x338 (and (=> sim_1_0 $x318) (=> sim_1_1 $x324) (=> sim_1_2 $x330) (=> sim_1_3 $x336))))
 (let (($x282 (= x_1_m1 0)))
 (let (($x313 (ite $x282 $x312 (ite $x251 $x310 (ite $x248 $x306 (ite $x245 $x306 (= x_2_m1 x_1_m1)))))))
 (let (($x277 (and (=> sim_0_0 $x257) (=> sim_0_1 $x263) (=> sim_0_2 $x269) (=> sim_0_3 $x275))))
 (let (($x111 (= x_0_m1 0)))
 (let (($x252 (ite $x111 $x251 (ite $x56 $x249 (ite $x107 $x245 (ite $x104 $x245 (= x_1_m1 x_0_m1)))))))
 (let (($x301 (and (=> sim_1_0 $x257) (=> sim_1_1 $x263) (=> sim_1_2 $x269) (=> sim_1_3 $x275))))
 (let (($x295 (ite $x282 $x251 (ite $x251 $x249 (ite $x248 $x245 (ite $x245 $x245 (= x_1_m1 x_1_m1)))))))
 (let (($x289 (and (=> sim_1_0 $x151) (=> sim_1_1 $x181) (=> sim_1_2 $x210) (=> sim_1_3 $x238))))
 (let (($x283 (ite $x282 $x56 (ite $x251 $x109 (ite $x248 $x104 (ite $x245 $x104 (= x_0_m1 x_1_m1)))))))
 (let (($x240 (and (=> sim_0_0 $x151) (=> sim_0_1 $x181) (=> sim_0_2 $x210) (=> sim_0_3 $x238))))
 (let (($x112 (ite $x111 $x56 (ite $x56 $x109 (ite $x107 $x104 (ite $x104 $x104 (= x_0_m1 x_0_m1)))))))
 (let (($x378 (or (and (or (and (and $x112) $x240))) (and $x252 $x277 (or (and (and $x283) $x289) (and (and $x295) $x301))) (and $x252 $x277 $x313 $x338 $x376))))
 (let (($x53 (<= x_3_m2 3)))
 (let (($x52 (>= x_3_m2 0)))
 (let (($x54 (and $x52 $x53)))
 (let (($x71 (and $x54)))
 (let (($x50 (<= x_2_m2 3)))
 (let (($x49 (>= x_2_m2 0)))
 (let (($x51 (and $x49 $x50)))
 (let (($x65 (and $x51)))
 (let (($x86 (=> (and (and (and (>= x_1_m2 0) (<= x_1_m2 3))) $x71) (or (not (= x_1_m2 x_3_m2))))))
 (let (($x81 (=> (and (and (and (>= x_1_m2 0) (<= x_1_m2 3))) $x65) (or (not (= x_1_m2 x_2_m2))))))
 (let (($x76 (=> (and (and (and (>= x_0_m2 0) (<= x_0_m2 3))) $x71) (or (not (= x_0_m2 x_3_m2))))))
 (let (($x70 (=> (and (and (and (>= x_0_m2 0) (<= x_0_m2 3))) $x65) (or (not (= x_0_m2 x_2_m2))))))
 (let (($x47 (<= x_1_m2 3)))
 (let (($x46 (>= x_1_m2 0)))
 (let (($x48 (and $x46 $x47)))
 (let (($x59 (and $x48)))
 (let (($x44 (<= x_0_m2 3)))
 (let (($x43 (>= x_0_m2 0)))
 (let (($x45 (and $x43 $x44)))
 (let (($x58 (and $x45)))
 (and (and (>= x_0_m1 0) (<= x_0_m1 3)) (and (>= x_1_m1 0) (<= x_1_m1 3)) (and (>= x_2_m1 0) (<= x_2_m1 3)) (and (>= x_3_m1 0) (<= x_3_m1 3)) $x45 $x48 $x51 $x54 $x56 $x57 (=> (and $x58 $x59) (or (not (= x_0_m2 x_1_m2)))) $x70 $x76 $x81 $x86 (=> (and $x65 $x71) (or (not (= x_2_m2 x_3_m2)))) $x56 (=> (and $x57) sim_0_0) (=> (and $x94) sim_0_1) (=> (and $x97) sim_0_2) (=> (and $x100) sim_0_3) $x378 $x383 $x388 $x393 $x398 $x403 $x408 $x413 $x418 $x423 $x428 $x433 $x438 $x445 $x450 $x455 $x460))))))))))))))))))))))))))))))))))))))))))))))))))))))))))))))))))))))))))))))))))))))))))))))))))))))))))))))))))))))))))))))))))))
(check-sat)
(check-sat)
(get-model)
(exit)
